language ESSENCE' 1.0
$ Minion SolverNodes: 47
$ Minion SolverTotalTime: 0.006739
$ Minion SolverTimeOut: 0
$ Savile Row TotalTime: 0.575
letting M be [[51, 19, 8, 22, 15, 43, 16, 45, 2], 
[51, 19, 8, 16, 15, 43, 45, 2, -1], 
[51, 19, 8, 15, 43, 45, 2, -1, -1], 
[51, 19, 8, 15, 45, 2, -1, -1, -1], 
[51, 19, 2, 15, 45, -1, -1, -1, -1], 
[51, 19, 15, 45, -1, -1, -1, -1, -1], 
[45, 19, 15, -1, -1, -1, -1, -1, -1], 
[19, 15, -1, -1, -1, -1, -1, -1, -1], 
[15, -1, -1, -1, -1, -1, -1, -1, -1]]
